;symbolic execution tree
(push)
(assert (le x0 java.lang.Object))
(check-sat)
(push)
(assert (le x1 java.lang.Object))
(check-sat)
(push)
(assert (le x2 java.lang.Object))
(check-sat)
(push)
(assert (le x3 java.lang.Object))
(check-sat)
(push)
(assert (= x2 java.lang.StringBuffer))
(check-sat)
(push)
(assert (le x3 com.lowagie.text.pdf.PdfName))
(check-sat)
(push)
(assert (le x1 com.lowagie.text.pdf.PdfObject))
(check-sat)
(push)
(assert (= x2 java.lang.StringBuffer))
(check-sat)
(pop)
(push)
(assert (not (= x2 java.lang.StringBuffer)))
(check-sat)
(pop)
(pop)
(push)
(assert (not (le x1 com.lowagie.text.pdf.PdfObject)))
(check-sat)
(pop)
(push)
(assert (= x2 java.lang.StringBuffer))
(check-sat)
(push)
(assert (= x2 java.lang.StringBuffer))
(check-sat)
(pop)
(push)
(assert (not (= x2 java.lang.StringBuffer)))
(check-sat)
(pop)
(pop)
(push)
(assert (not (= x2 java.lang.StringBuffer)))
(check-sat)
(pop)
(push)
(assert (= x0 java.lang.StringBuffer))
(check-sat)
(push)
(assert (= x1 java.lang.StringBuffer))
(check-sat)
(pop)
(push)
(assert (not (= x1 java.lang.StringBuffer)))
(check-sat)
(pop)
(pop)
(push)
(assert (not (= x0 java.lang.StringBuffer)))
(check-sat)
(push)
(assert (le x3 com.lowagie.text.pdf.PdfName))
(check-sat)
(push)
(assert (= x2 java.lang.StringBuffer))
(check-sat)
(pop)
(push)
(assert (not (= x2 java.lang.StringBuffer)))
(check-sat)
(pop)
(pop)
(push)
(assert (not (le x3 com.lowagie.text.pdf.PdfName)))
(check-sat)
(pop)
(pop)
(pop)
(push)
(assert (not (le x3 com.lowagie.text.pdf.PdfName)))
(check-sat)
(pop)
(push)
(assert (le x1 com.lowagie.text.pdf.PdfName))
(check-sat)
(pop)
(push)
(assert (not (le x1 com.lowagie.text.pdf.PdfName)))
(check-sat)
(push)
(assert (le x1 com.lowagie.text.pdf.PdfName))
(check-sat)
(pop)
(push)
(assert (not (le x1 com.lowagie.text.pdf.PdfName)))
(check-sat)
(pop)
(push)
(assert (= x3 java.lang.String))
(check-sat)
(push)
(assert (le x1 com.lowagie.text.pdf.PdfObject))
(check-sat)
(pop)
(push)
(assert (not (le x1 com.lowagie.text.pdf.PdfObject)))
(check-sat)
(pop)
(pop)
(push)
(assert (not (= x3 java.lang.String)))
(check-sat)
(pop)
(push)
(assert (= x0 java.lang.StringBuffer))
(check-sat)
(push)
(assert (= x0 java.lang.StringBuffer))
(check-sat)
(pop)
(push)
(assert (not (= x0 java.lang.StringBuffer)))
(check-sat)
(pop)
(push)
(assert (= x2 java.lang.StringBuffer))
(check-sat)
(push)
(assert (= x2 java.lang.StringBuffer))
(check-sat)
(pop)
(push)
(assert (not (= x2 java.lang.StringBuffer)))
(check-sat)
(pop)
(pop)
(push)
(assert (not (= x2 java.lang.StringBuffer)))
(check-sat)
(pop)
(pop)
(push)
(assert (not (= x0 java.lang.StringBuffer)))
(check-sat)
(pop)
(pop)
(push)
(assert (= x1 java.lang.StringBuffer))
(check-sat)
(push)
(assert (= x0 java.lang.String))
(check-sat)
(pop)
(push)
(assert (not (= x0 java.lang.String)))
(check-sat)
(push)
(assert (= x2 java.lang.StringBuffer))
(check-sat)
(pop)
(push)
(assert (not (= x2 java.lang.StringBuffer)))
(check-sat)
(pop)
(push)
(assert (= x3 java.lang.StringBuffer))
(check-sat)
(pop)
(push)
(assert (not (= x3 java.lang.StringBuffer)))
(check-sat)
(push)
(assert (= x3 java.lang.StringBuffer))
(check-sat)
(pop)
(push)
(assert (not (= x3 java.lang.StringBuffer)))
(check-sat)
(pop)
(push)
(assert (= x1 java.lang.StringBuffer))
(check-sat)
(pop)
(push)
(assert (not (= x1 java.lang.StringBuffer)))
(check-sat)
(pop)
(push)
(assert (= x2 java.lang.StringBuffer))
(check-sat)
(pop)
(push)
(assert (not (= x2 java.lang.StringBuffer)))
(check-sat)
(pop)
(pop)
(push)
(assert (= x3 java.lang.String))
(check-sat)
(pop)
(push)
(assert (not (= x3 java.lang.String)))
(check-sat)
(pop)
(pop)
(push)
(assert (le x3 com.lowagie.text.pdf.PdfName))
(check-sat)
(push)
(assert (not (le x3 com.lowagie.text.pdf.PdfDashPattern)))
(check-sat)
(push)
(assert (le x3 com.lowagie.text.pdf.PdfArray))
(check-sat)
(push)
(assert (= x1 java.lang.StringBuffer))
(check-sat)
(pop)
(push)
(assert (not (= x1 java.lang.StringBuffer)))
(check-sat)
(pop)
(pop)
(pop)
(push)
(assert (not (le x3 com.lowagie.text.pdf.PdfArray)))
(check-sat)
(push)
(assert (not (le x3 com.lowagie.text.pdf.PdfLiteral)))
(check-sat)
(push)
(assert (not (le x3 com.lowagie.text.pdf.PdfDictionary)))
(check-sat)
(push)
(assert (not (le x3 com.lowagie.text.pdf.PdfString)))
(check-sat)
(push)
(assert (le x3 com.lowagie.text.pdf.PdfObject))
(check-sat)
(pop)
(pop)
(pop)
(pop)
(pop)
(push)
(assert (not (le x3 com.lowagie.text.pdf.PRStream)))
(check-sat)
(push)
(assert (not (le x3 com.lowagie.text.pdf.PdfEFStream)))
(check-sat)
(push)
(assert (le x3 com.lowagie.text.pdf.PdfStream))
(check-sat)
(pop)
(pop)
(pop)
(push)
(assert (le x3 com.lowagie.text.pdf.PRIndirectReference))
(check-sat)
(pop)
(push)
(assert (le x3 com.lowagie.text.pdf.PdfString))
(check-sat)
(pop)
(push)
(assert (le x3 com.lowagie.text.pdf.PdfEFStream))
(check-sat)
(pop)
(push)
(assert (le x3 com.lowagie.text.pdf.PdfWriter_currencysign_PdfTrailer))
(check-sat)
(pop)
(push)
(assert (le x3 com.lowagie.text.pdf.PdfOutline))
(check-sat)
(pop)
(push)
(assert (le x3 com.lowagie.text.pdf.PdfLiteral))
(check-sat)
(pop)
(push)
(assert (le x3 com.lowagie.text.pdf.PdfDashPattern))
(check-sat)
(pop)
(push)
(assert (not (le x3 com.lowagie.text.pdf.PdfStream)))
(check-sat)
(push)
(assert (le x3 com.lowagie.text.pdf.PdfDictionary))
(check-sat)
(push)
(assert (not (le x3 com.lowagie.text.pdf.PdfOutline)))
(check-sat)
(push)
(assert (not (le x3 com.lowagie.text.pdf.PdfWriter_currencysign_PdfTrailer)))
(check-sat)
(pop)
(pop)
(pop)
(pop)
(push)
(assert (le x3 com.lowagie.text.pdf.PRStream))
(check-sat)
(pop)
(pop)
(push)
(assert (not (le x3 com.lowagie.text.pdf.PdfName)))
(check-sat)
(pop)
(pop)
(push)
(assert (not (= x1 java.lang.StringBuffer)))
(check-sat)
(pop)
(push)
(assert (= x1 java.lang.StringBuffer))
(check-sat)
(push)
(assert (= x0 java.lang.StringBuffer))
(check-sat)
(pop)
(push)
(assert (not (= x0 java.lang.StringBuffer)))
(check-sat)
(pop)
(push)
(assert (= x2 java.lang.StringBuffer))
(check-sat)
(pop)
(push)
(assert (not (= x2 java.lang.StringBuffer)))
(check-sat)
(pop)
(pop)
(push)
(assert (not (= x1 java.lang.StringBuffer)))
(check-sat)
(pop)
(push)
(assert (= x1 java.lang.StringBuffer))
(check-sat)
(push)
(assert (= x2 java.lang.StringBuffer))
(check-sat)
(pop)
(push)
(assert (not (= x2 java.lang.StringBuffer)))
(check-sat)
(pop)
(push)
(assert (= x1 java.lang.StringBuffer))
(check-sat)
(pop)
(push)
(assert (not (= x1 java.lang.StringBuffer)))
(check-sat)
(pop)
(push)
(assert (= x1 java.lang.StringBuffer))
(check-sat)
(pop)
(push)
(assert (not (= x1 java.lang.StringBuffer)))
(check-sat)
(pop)
(push)
(assert (= x0 java.lang.String))
(check-sat)
(pop)
(push)
(assert (not (= x0 java.lang.String)))
(check-sat)
(push)
(assert (= x2 java.lang.StringBuffer))
(check-sat)
(pop)
(push)
(assert (not (= x2 java.lang.StringBuffer)))
(check-sat)
(pop)
(push)
(assert (= x3 java.lang.String))
(check-sat)
(pop)
(push)
(assert (not (= x3 java.lang.String)))
(check-sat)
(push)
(assert (= x1 java.lang.StringBuffer))
(check-sat)
(pop)
(push)
(assert (not (= x1 java.lang.StringBuffer)))
(check-sat)
(pop)
(pop)
(push)
(assert (= x3 java.lang.Integer))
(check-sat)
(pop)
(push)
(assert (not (= x3 java.lang.Integer)))
(check-sat)
(pop)
(push)
(assert (= x0 java.lang.String))
(check-sat)
(pop)
(push)
(assert (not (= x0 java.lang.String)))
(check-sat)
(pop)
(pop)
(push)
(assert (le x0 com.lowagie.text.pdf.ByteBuffer))
(check-sat)
(pop)
(push)
(assert (not (le x0 com.lowagie.text.pdf.ByteBuffer)))
(check-sat)
(pop)
(pop)
(push)
(assert (not (= x1 java.lang.StringBuffer)))
(check-sat)
(pop)
(push)
(assert (le x0 com.lowagie.text.pdf.PdfRectangle))
(check-sat)
(push)
(assert (le x0 com.lowagie.text.pdf.PdfArray))
(check-sat)
(push)
(assert (le x3 com.lowagie.text.pdf.ByteBuffer))
(check-sat)
(pop)
(push)
(assert (not (le x3 com.lowagie.text.pdf.ByteBuffer)))
(check-sat)
(pop)
(push)
(assert (le x0 com.lowagie.text.pdf.PdfRectangle))
(check-sat)
(pop)
(push)
(assert (not (le x0 com.lowagie.text.pdf.PdfRectangle)))
(check-sat)
(push)
(assert (le x0 com.lowagie.text.pdf.PdfArray))
(check-sat)
(pop)
(pop)
(pop)
(push)
(assert (not (le x0 com.lowagie.text.pdf.PdfArray)))
(check-sat)
(pop)
(push)
(assert (= x1 java.lang.StringBuffer))
(check-sat)
(pop)
(push)
(assert (not (= x1 java.lang.StringBuffer)))
(check-sat)
(pop)
(push)
(assert (le x0 com.lowagie.text.pdf.PdfArray))
(check-sat)
(pop)
(push)
(assert (not (le x0 com.lowagie.text.pdf.PdfArray)))
(check-sat)
(pop)
(push)
(assert (= x3 java.lang.Integer))
(check-sat)
(push)
(assert (le x1 com.lowagie.text.pdf.ByteBuffer))
(check-sat)
(push)
(assert (= x3 java.lang.Integer))
(check-sat)
(pop)
(push)
(assert (not (= x3 java.lang.Integer)))
(check-sat)
(pop)
(pop)
(push)
(assert (not (le x1 com.lowagie.text.pdf.ByteBuffer)))
(check-sat)
(push)
(assert (le x0 com.lowagie.text.pdf.PdfArray))
(check-sat)
(pop)
(push)
(assert (not (le x0 com.lowagie.text.pdf.PdfArray)))
(check-sat)
(pop)
(pop)
(pop)
(push)
(assert (not (= x3 java.lang.Integer)))
(check-sat)
(push)
(assert (= x3 java.lang.Integer))
(check-sat)
(pop)
(push)
(assert (not (= x3 java.lang.Integer)))
(check-sat)
(push)
(assert (not (le x1 org.dom4j.tree.BackedList)))
(check-sat)
(push)
(assert (not (le x1 com.lowagie.text.Section)))
(check-sat)
(push)
(assert (not (le x1 com.lowagie.text.Phrase)))
(check-sat)
(push)
(assert (le x1 java.util.ArrayList))
(check-sat)
(pop)
(pop)
(pop)
(pop)
(push)
(assert (le x1 java.util.TreeSet))
(check-sat)
(pop)
(push)
(assert (le x1 java.util.LinkedList))
(check-sat)
(pop)
(push)
(assert (not (le x1 java.util.AbstractList)))
(check-sat)
(push)
(assert (le x1 java.util.AbstractCollection))
(check-sat)
(pop)
(pop)
(push)
(assert (le x1 com.lowagie.text.Cell))
(check-sat)
(pop)
(push)
(assert (le x1 java.util.Vector))
(check-sat)
(pop)
(push)
(assert (le x1 org.dom4j.tree.ContentListFacade))
(check-sat)
(pop)
(push)
(assert (le x1 com.lowagie.text.Phrase))
(check-sat)
(pop)
(push)
(assert (le x1 com.lowagie.text.Section))
(check-sat)
(pop)
(push)
(assert (le x1 org.dom4j.tree.BackedList))
(check-sat)
(pop)
(push)
(assert (not (le x1 java.util.ArrayList)))
(check-sat)
(push)
(assert (le x1 java.util.AbstractList))
(check-sat)
(push)
(assert (not (le x1 org.dom4j.tree.ContentListFacade)))
(check-sat)
(push)
(assert (not (le x1 java.util.Vector)))
(check-sat)
(pop)
(pop)
(pop)
(pop)
(push)
(assert (le x1 java.util.HashSet))
(check-sat)
(pop)
(pop)
(push)
(assert (= x2 java.lang.StringBuffer))
(check-sat)
(pop)
(push)
(assert (not (= x2 java.lang.StringBuffer)))
(check-sat)
(pop)
(push)
(assert (= x3 java.lang.Integer))
(check-sat)
(pop)
(push)
(assert (not (= x3 java.lang.Integer)))
(check-sat)
(pop)
(pop)
(pop)
(push)
(assert (not (le x0 com.lowagie.text.pdf.PdfRectangle)))
(check-sat)
(push)
(assert (le x0 com.lowagie.text.pdf.PdfArray))
(check-sat)
(pop)
(pop)
(pop)
(push)
(assert (not (= x2 java.lang.StringBuffer)))
(check-sat)
(pop)
